NAME: Graph
TYPE: TSP
DIMENSION: 100
EDGE_WEIGHT_TYPE: EUC_2D
NODE_COORD_SECTION
1 0 23
2 1 8
3 3 42
4 3 98
5 5 54
6 6 80
7 7 87
8 8 72
9 9 57
10 10 45
11 10 51
12 11 85
13 13 31
14 14 32
15 14 46
16 14 62
17 14 73
18 15 0
19 17 12
20 17 35
21 20 1
22 20 61
23 22 54
24 23 3
25 24 77
26 25 14
27 25 15
28 27 60
29 28 48
30 28 62
31 28 78
32 28 91
33 29 48
34 32 99
35 33 67
36 33 78
37 34 26
38 34 76
39 34 89
40 36 1
41 36 49
42 38 33
43 38 42
44 39 5
45 40 0
46 42 39
47 44 14
48 44 98
49 45 30
50 45 59
51 46 19
52 47 53
53 49 10
54 50 66
55 50 85
56 50 97
57 51 66
58 51 91
59 52 39
60 52 45
61 53 3
62 53 22
63 53 66
64 55 43
65 56 62
66 57 63
67 59 52
68 61 85
69 62 20
70 62 64
71 65 21
72 67 23
73 68 5
74 68 55
75 69 77
76 70 48
77 72 1
78 72 40
79 72 83
80 73 25
81 73 96
82 74 73
83 74 96
84 78 71
85 79 4
86 82 59
87 82 69
88 84 63
89 85 31
90 85 34
91 86 57
92 87 70
93 91 63
94 93 13
95 93 62
96 95 9
97 96 58
98 96 87
99 96 97
100 97 18
EOF
